HUN,8,6,42
3,96,0,2,2,7,4,33,5,54,1,50
3,10,0,76,4,54,1,40,2,44,5,54
4,67,2,29,5,48,1,85,0,75,3,86
1,29,2,59,5,92,0,12,3,45,4,35
2,38,3,48,1,98,5,25,0,42,4,87
5,8,4,12,2,48,0,27,1,5,3,35
5,53,2,77,4,57,1,86,3,78,0,52
2,8,0,95,5,60,3,9,4,58,1,74
